n = 38;
lu = [|-84, 116
      |-764, -499
      |135, 923
      |-283, 1382
      |-311, 821
      |126, 917
      |-1406, -424
      |-1369, 1265
      |-809, 355
      |-831, -138
      |-758, -390
      |1237, 1387
      |947, 1098
      |-1201, -954
      |-1309, 963
      |-290, 327
      |-1147, -560
      |31, 502
      |-932, 830
      |-1369, 1300
      |-1040, -938
      |-856, 1377
      |-1225, -716
      |-353, -143
      |-522, 1095
      |-1338, 1047
      |-699, 922
      |-1209, 337
      |-210, 192
      |-1007, -847
      |-1061, 1290
      |-1356, 223
      |1244, 1273
      |173, 576
      |-1356, -501
      |-1093, -892
      |-1126, 433
      |201, 299|];
